\ LP format - for model browsing. Use MPS format to capture full model detail.
Minimize
  2 x7 + 6 x8
Subject To
 c1: x1 - x3 - x5 = 0
 c3: x3 - 90 x7 = 0
 c4: x5 - 100 x8 = 0
Bounds
 x7 <= 500
 x8 <= 1000
End
